StudentsNr = 10;
InstructorsNr = 16;
DaysNr = 1;
SlotsPerDay = 60;
AvailabilitySlotsLenght = 3;
RoomNr = 1;
ProgrammNr = 2;
DegreeNr = 3;
RolesNr = 2;
CoursesNr = 8;
InstructorsProgramm = [{2}, {2}, {1, 2}, {2}, {1, 2}, {1, 2}, {1, 2}, {2}, {2}, {2}, {2}, {1}, {1, 2}, {1}, {1}, {2}];
InstructorRolesPerProgramm = [|{7, 12, 14}, {3, 5, 13}|{4, 7}, {3, 4, 5, 9, 13}|];
InstructorsAvailability = [|1, 1, 1, 1, 1, 1, 1, 1, 1, 1, 1, 1, 1, 1, 1, 1, 1, 1, 1, 1, |1, 1, 1, 1, 1, 1, 1, 1, 1, 1, 1, 1, 0, 0, 0, 1, 1, 1, 1, 1, |1, 1, 1, 1, 1, 1, 1, 1, 1, 1, 0, 0, 1, 1, 1, 0, 1, 1, 1, 1, |1, 1, 1, 1, 1, 1, 1, 1, 1, 1, 1, 1, 1, 1, 1, 0, 1, 1, 1, 1, |1, 0, 1, 0, 0, 1, 1, 1, 1, 0, 0, 1, 1, 1, 0, 1, 0, 0, 1, 1, |0, 1, 1, 1, 1, 0, 1, 1, 1, 0, 1, 1, 0, 1, 1, 0, 0, 0, 1, 1, |0, 0, 1, 1, 1, 1, 1, 1, 1, 1, 1, 1, 1, 1, 0, 1, 0, 1, 1, 1, |1, 1, 1, 1, 1, 1, 1, 1, 1, 1, 1, 1, 1, 1, 1, 1, 1, 1, 1, 1, |1, 1, 0, 0, 0, 1, 1, 1, 1, 1, 1, 1, 1, 1, 1, 1, 0, 1, 1, 1, |1, 1, 1, 0, 0, 1, 1, 1, 1, 1, 1, 1, 1, 0, 0, 1, 1, 0, 1, 1, |1, 1, 1, 1, 1, 1, 1, 1, 1, 1, 1, 1, 1, 1, 0, 0, 1, 1, 1, 1, |1, 1, 1, 1, 1, 0, 1, 0, 0, 1, 1, 1, 1, 1, 1, 0, 0, 1, 1, 1, |0, 0, 1, 1, 0, 0, 1, 1, 0, 1, 1, 1, 1, 0, 1, 1, 1, 1, 1, 1, |0, 0, 1, 1, 1, 1, 1, 1, 1, 1, 1, 1, 1, 1, 1, 1, 1, 1, 1, 1, |1, 1, 0, 0, 0, 1, 1, 1, 1, 1, 1, 1, 1, 1, 1, 1, 1, 0, 0, 1, |1, 1, 1, 1, 1, 1, 1, 1, 1, 1, 1, 1, 1, 0, 0, 0, 1, 1, 1, 1|];
StudentsProgramm = [2, 1, 1, 1, 2, 2, 2, 2, 2, 1];
StudentsDegree = [2, 1, 2, 3, 3, 1, 2, 3, 3, 1];
StudentsSupervisorId = [4, 7, 7, 13, 9, 11, 1, 11, 7, 13];
StudentsCourseIds = [{1, 2, 3, 4, 5, 6, 8}, {1, 2, 3, 4, 5, 6, 7, 8}, {1, 2, 4, 5, 6, 7, 8}, {}, {}, {1, 2, 3, 4, 5, 6, 7, 8}, {1, 2, 3, 4, 6, 7, 8}, {}, {}, {1, 2, 3, 4, 5, 6, 7, 8}];
StudentsAvailability = [|0, 0, 1, 1, 1, 1, 1, 1, 1, 1, 1, 1, 1, 1, 1, 1, 1, 1, 1, 1, |0, 1, 1, 1, 1, 1, 1, 1, 1, 1, 1, 1, 1, 1, 1, 1, 1, 1, 1, 1, |0, 0, 0, 0, 1, 1, 1, 1, 1, 1, 1, 1, 1, 0, 1, 1, 1, 1, 1, 1, |0, 0, 1, 1, 1, 0, 1, 1, 1, 1, 1, 1, 1, 1, 0, 1, 1, 1, 1, 1, |0, 1, 1, 1, 1, 0, 0, 1, 1, 1, 1, 1, 1, 1, 0, 1, 1, 1, 1, 1, |0, 0, 1, 1, 1, 1, 1, 1, 1, 1, 1, 0, 0, 0, 0, 0, 0, 0, 1, 0, |1, 1, 1, 1, 1, 1, 1, 1, 1, 1, 1, 1, 1, 1, 1, 1, 1, 1, 1, 1, |1, 1, 1, 1, 1, 1, 1, 0, 1, 0, 1, 1, 1, 1, 1, 1, 1, 1, 1, 1, |1, 1, 1, 0, 1, 1, 0, 0, 0, 1, 1, 1, 1, 1, 1, 1, 1, 1, 1, 1, |0, 1, 1, 1, 1, 1, 1, 1, 1, 1, 1, 1, 1, 1, 1, 1, 1, 1, 1, 1|];
TheoryticalMinCard = [2, 3, 3, 0, 0, 2, 2, 1, 0, 3];
CoursesInstructorIds = [{1, 5, 10, 15}, {2, 6, 11, 12}, {4, 5, 8, 10, 14}, {11}, {9, 10, 15}, {1, 7, 8, 9, 11, 12, 13, 14}, {2, 4, 11}, {1, 2, 7, 10, 11, 13}];
RolesDemands = [2, 1];
RolesContinuity = [2];
ExamLen = [1, 2, 1, 2, 2, 2, 1, 2, 2, 2];
LunchTsMinLen = 1;
LunchStarts = [24..43];
SupervisorAvailable = 0;
OptimalLunchLenght = [3, 1];
OptimalStartTs = [0, 0];
OptimalFinishTs = [2, 60];
MinimizeRooms = 0;
RolesSoftContinuity = [|1, 2|0, 4|];
SameDegreeInRoom = 0;
Mergeability = 0;
